NAME : single.6092.tour
COMMENT : Length = 6092
COMMENT : Found by LKH [Keld Helsgaun] Mon Mar  9 21:32:24 2026
TYPE : TOUR
DIMENSION : 60
TOUR_SECTION
1
60
16
55
54
6
17
48
37
38
39
42
40
41
44
43
50
49
26
18
57
56
8
3
2
4
5
7
58
24
14
12
13
11
9
10
22
29
30
31
53
27
28
21
25
15
19
20
23
59
51
52
32
33
34
45
46
36
47
35
-1
EOF
